p cnf 22 42
-1 -2 0
1 2 0
-11 1 0
-11 3 0
-1 -3 11 0
-12 2 0
-12 4 0
-2 -4 12 0
-7 2 0
-7 5 0
-2 -5 7 0
-8 1 0
-8 6 0
-1 -6 8 0
9 -7 0
9 -8 0
-9 7 8 0
-13 12 0
-13 10 0
-12 -10 13 0
-14 11 0
-14 10 0
-11 -10 14 0
-15 -13 0
-15 -14 0
15 13 14 0
16 -9 0
16 -10 0
-16 9 10 0
-17 15 0
-17 16 0
-15 -16 17 0
-19 -20 0
19 20 0
21 18 0
21 20 0
-18 -20 -21 0
-22 -17 -21 0
-22 17 21 0
22 -17 21 0
22 17 -21 0
22 0